% RUNS ON flatzinc
% RUNS ON fzn_fd
% RUNS ON fzn_fdlp
% RUNS ON fzn_lazyfd
var set of 1..3: x1 :: output_var;
var set of 1..3: x2 :: output_var;
constraint set_eq(x1, {});
constraint set_eq(x2, {1, 2, 3});
solve satisfy;
